g3 1 1 0	# problem tmp
 15 11 1 0 6	# vars, constraints, objectives, ranges, eqns
 10 1 0 3	# nonlinear constrs, objs; ccons: lin, nonlin
 0 0	# network constraints: nonlinear, linear
 15 4 4	# nonlinear vars in constraints, objectives, both
 0 0 0 1	# linear network variables; functions; arith, flags
 0 0 0 0 0	# discrete variables: binary, integer, nonlinear (b,c,o)
 82 4	# nonzeros in Jacobian, gradients
 0 0	# max name lengths: constraints, variables
 0 4 0 0 0	# common exprs: b,c,o,c1,o1
V15 0 0
o54
3
o2
o5
v0
n2
o5
v3
n2
o2
o5
v1
n2
o5
v2
n2
o16
o2
o2
o2
o2
n2
v0
v2
v1
v3
V16 0 0
o3
o0
o5
v2
n2
o5
v3
n2
v15
V17 0 0
o16
o3
o0
o2
v0
v2
o2
v1
v3
v15
V18 0 0
o3
o0
o5
v0
n2
o5
v1
n2
v15
C0
o16
o5
v9
n2
C1
o2
v12
o0
o2
o2
n2
v16
o1
v6
v4
o2
o2
n2
v17
o1
v9
v5
C2
o2
v12
o0
o2
o2
n2
v18
o1
v9
v5
o2
o2
n2
v17
o1
v6
v4
C3
o2
v13
o0
o2
o2
n2
v16
o1
v7
v4
o2
o2
n2
v17
o1
v10
v5
C4
o2
v13
o0
o2
o2
n2
v18
o1
v10
v5
o2
o2
n2
v17
o1
v7
v4
C5
o2
v14
o0
o2
o2
n2
v16
o1
v8
v4
o2
o2
n2
v17
o1
v11
v5
C6
o2
v14
o0
o2
o2
n2
v18
o1
v11
v5
o2
o2
n2
v17
o1
v8
v4
C7
o16
o54
4
o2
v16
o5
o1
v6
v4
n2
o2
o2
o2
n2
v17
o1
v6
v4
o1
v9
v5
o2
v18
o5
o1
v9
v5
n2
n-1
C8
o16
o54
4
o2
v16
o5
o1
v7
v4
n2
o2
o2
o2
n2
v17
o1
v7
v4
o1
v10
v5
o2
v18
o5
o1
v10
v5
n2
n-1
C9
o16
o54
4
o2
v16
o5
o1
v8
v4
n2
o2
o2
o2
n2
v17
o1
v8
v4
o1
v11
v5
o2
v18
o5
o1
v11
v5
n2
n-1
C10
n0
O0 1
o2
n3.141592654
o15
o1
o2
v0
v3
o2
v1
v2
x15
0 1
1 0
2 0
3 1
4 0
5 0
6 -1.000000000000073
7 0.2425356250359245
8 0
9 0
10 0.9701425001468117
11 -1.000000000026019
12 0.5000000393303194
13 0.5153882031999911
14 0.4999999999777709
r
1 0
4 -1
4 0
4 0.25
4 1
4 0
4 -1
5 1 13
5 1 14
5 1 15
1 0.75
b
3
3
3
3
3
3
3
3
3
3
3
2 -1
2 0
2 0
2 0
k14
9
18
27
36
45
54
58
62
65
69
73
76
78
80
J0 2
6 -1
9 0
J1 9
0 0
1 0
2 0
3 0
4 0
5 0
6 0
9 0
12 0
J2 9
0 0
1 0
2 0
3 0
4 0
5 0
6 0
9 2
12 0
J3 9
0 0
1 0
2 0
3 0
4 0
5 0
7 0
10 0
13 0
J4 9
0 0
1 0
2 0
3 0
4 0
5 0
7 0
10 0
13 0
J5 9
0 0
1 0
2 0
3 0
4 0
5 0
8 0
11 0
14 0
J6 9
0 0
1 0
2 0
3 0
4 0
5 0
8 0
11 0
14 0
J7 8
0 0
1 0
2 0
3 0
4 0
5 0
6 0
9 0
J8 8
0 0
1 0
2 0
3 0
4 0
5 0
7 0
10 0
J9 8
0 0
1 0
2 0
3 0
4 0
5 0
8 0
11 0
J10 2
7 0.25
10 1
G0 4
0 0
1 0
2 0
3 0
